NAME: rue_25_3
TYPE: TSP
DIMENSION: 25
EDGE_WEIGHT_TYPE: EUC_2D
NODE_COORD_SECTION
1 15 22
2 17 38
3 24 14
4 3 12
5 37 33
6 36 16
7 32 2
8 10 18
9 3 6
10 14 18
11 31 22
12 4 11
13 38 27
14 25 14
15 39 22
16 27 36
17 22 11
18 10 7
19 31 31
20 24 7
21 10 19
22 1 29
23 40 26
24 23 5
25 40 31

